(
(define-fun top () REJECTED_GROUPS (rejected_groups_con0 (rg_element_id_con0 _stub0_grammar_element_con) #b00000000 (rg_element_id_extension_con0 _stub1_grammar_element_con) (rg_id_list_con0 #b00000000)))
)
